NAME : 10_3_3_1_(32).dat
COMMENT : Henke, Speranza, Wäscher, 2015
TYPE : MCVRP
DIMENSION : 11
EDGE_WEIGHT_TYPE : DISTANCE_MATRIX
CAPACITY : 1000
VEHICLES : 2
PRODUCT TYPES : 3
COMPARTMENTS : 3
NODE_COORD_SECTION
1 50 50
2 41.94 79.87
3 93.34 71.97
4 23.39 11.64
5 3.73 67.81
6 28.56 54.89
7 28.36 36.8
8 8.64 18.96
9 9.99 85.37
10 19.22 25.37
11 67.64 98.69
DEMAND_SECTION
1 0 0 0
2 235 0 0
3 0 65 0
4 108 0 0
5 0 0 178
6 39 0 0
7 303 0 0
8 0 15 0
9 0 239 0
10 0 92 0
11 0 0 96
DEPOT_SECTION
1
EOF